NAME: line_43_68
TYPE: TSP
COMMENT: srandom_43_68
DIMENSION: 43
EDGE_WEIGHT_TYPE: EUC_2D
NODE_COORD_SECTION
1 359 341
2 2638 4705
3 2197 2916
4 3750 4718
5 2680 4471
6 754 1066
7 1615 2273
8 1418 2142
9 4146 578
10 3643 3573
11 1070 2564
12 4633 884
13 1294 1757
14 3047 4397
15 2863 241
16 3529 4366
17 1893 1948
18 4189 3191
19 2863 3790
20 2499 1039
21 959 2608
22 2386 495
23 4457 2546
24 1363 3593
25 1014 2108
26 2372 4363
27 4429 1103
28 4023 1458
29 1257 1710
30 2597 1995
31 324 1245
32 1668 538
33 2170 2477
34 1479 4814
35 3800 1299
36 3343 4503
37 4578 3471
38 1109 3898
39 273 3178
40 1427 1893
41 3106 3302
42 3029 3321
43 559 2605
